
&CONTROL
  !calculation = 'vc-relax'
  calculation='scf'
  prefix = 'MAPbI3'
  outdir = './tmp/'
  pseudo_dir = './pseudodojo-pbesol-paw-stringent/'
  restart_mode = 'from_scratch'
  max_seconds = 21000
  etot_conv_thr = 3.5279349288639156d-12
  forc_conv_thr = 3.889380759660317d-07
  tprnfor = .true.
  tstress = .true.
  nstep = 999
/

&SYSTEM
  ecutwfc = 70
  ecutrho = 560
  ibrav = 0
  !A =   12.93110
  celldm(1) = 24.43623749
  nat = 48
  ntyp = 5
  input_dft = 'PBEsol'
  vdw_corr = 'DFT-D3'
  dftd3_version = 4
  dftd3_threebody = .true.
  occupations = 'fixed'
/

&ELECTRONS
  adaptive_thr = .true.
  conv_thr = 3.5279349288639156d-12
  diagonalization = 'ppcg'
  mixing_beta = 0.3
  !diago_thr_init = 1.0d-7
  electron_maxstep = 999
/

&IONS
  ion_dynamics = 'bfgs'
  trust_radius_min = 1.8897261259077822d-06
  upscale = 10000
/

&CELL
  cell_dynamics = 'bfgs'
  !cell_dofree = 'volume'
  press = 0.0001
  press_conv_thr = 0.0001
/

K_POINTS (automatic)
  2 2 2 1 1 1

!END_HEADER

ATOMIC_SPECIES
   I  126.90400   I.upf
   H    1.00750   H.upf
   N   14.00650   N.upf
  Pb  207.20000  Pb.upf
   C   12.01060   C.upf

!CELL_PARAMETERS (alat= 24.43623749)
CELL_PARAMETERS alat
   0.490833279  -0.466488098   0.000000000
   0.490833279   0.466488098   0.000000000
   0.000000000   0.000000000   0.937277346

ATOMIC_POSITIONS (crystal)
Pb               0.0000000000       -0.0000000000       -0.0000000000
Pb              -0.0000000000       -0.0000000000        0.5000000000
Pb               0.5000000000        0.5000000000        0.0000000000
Pb               0.5000000000        0.5000000000        0.5000000000
I                0.2504424689        0.2504424689        0.0000000000
I                0.2504424689        0.2504424689        0.5000000000
I                0.7495575311        0.7495575311        0.5000000000
I                0.7495575311        0.7495575311       -0.0000000000
I                0.0548755461        0.9451244539        0.7500000000
I                0.9451244539        0.0548755461        0.2500000000
I                0.4323584089        0.5676415911        0.7500000000
I                0.5676415911        0.4323584089        0.2500000000
I                0.7503809544        0.2496190456        0.9260262478
I                0.7503809544        0.2496190456        0.5739737522
I                0.2496190456        0.7503809544        0.4260262478
I                0.2496190456        0.7503809544        0.0739737522
N                0.3664911048        0.0531033168        0.2500000000
N                0.0531033168        0.3664911048        0.7500000000
N                0.6335088952        0.9468966832        0.7500000000
N                0.9468966832        0.6335088952        0.2500000000
C                0.5276220239        0.9949661837        0.2500000000
C                0.9949661837        0.5276220239        0.7500000000
C                0.4723779761        0.0050338163        0.7500000000
C                0.0050338163        0.4723779761        0.2500000000
H                0.6597807076        0.8803158507        0.8196293077
H                0.6597807076        0.8803158507        0.6803706923
H                0.8803158507        0.6597807076        0.3196293077
H                0.8803158507        0.6597807076        0.1803706923
H                0.3402192924        0.1196841493        0.3196293077
H                0.1196841493        0.3402192924        0.6803706923
H                0.3402192924        0.1196841493        0.1803706923
H                0.1196841493        0.3402192924        0.8196293077
H                0.5487437362        0.9249726212        0.3242413108
H                0.5487437362        0.9249726212        0.1757586892
H                0.9249726212        0.5487437362        0.8242413108
H                0.9249726212        0.5487437362        0.6757586892
H                0.4512562638        0.0750273788        0.8242413108
H                0.0750273788        0.4512562638        0.1757586892
H                0.4512562638        0.0750273788        0.6757586892
H                0.0750273788        0.4512562638        0.3242413108
H                0.6015087026        0.0925699451        0.2500000000
H                0.0925699451        0.6015087026        0.7500000000
H                0.3984912974        0.9074300549        0.7500000000
H                0.9074300549        0.3984912974        0.2500000000
H                0.0368482387        0.7069222948        0.2500000000
H                0.7069222948        0.0368482387        0.7500000000
H                0.9631517613        0.2930777052        0.7500000000
H                0.2930777052        0.9631517613        0.2500000000
