! Converted from MAPI-ND-9_cmcm.cif with cif2cell
! Relaxed on 2024-07-29

&CONTROL
  calculation = 'vc-relax'
  prefix = 'MAPbI3'
  outdir = './tmp/'
  pseudo_dir = './pseudodojo-pbesol-paw-standard/'
  restart_mode = 'from_scratch'
  max_seconds = 85000
  etot_conv_thr = 3.5279349288639156d-12
  forc_conv_thr = 3.889380759660317d-07
  tprnfor = .true.
  tstress = .true.
  nstep = 9999
/

&SYSTEM
  ecutwfc = 66.14877991619842
!  ecutrho = ! 4 * ecutwfc
  ibrav = 0
  A =   12.93110
  nat = 48
  ntyp = 6
  input_dft = 'PBEsol'
  vdw_corr = 'DFT-D3'
  dftd3_version = 4
  dftd3_threebody = .true.
  occupations = 'fixed'
/

&ELECTRONS
  adaptive_thr = .true.
  conv_thr = 3.5279349288639156d-12
!  mixing_beta = 0.7d0
  diago_thr_init = 1.0d-7
  electron_maxstep = 9999
/

&IONS
  ion_dynamics = 'bfgs'
  trust_radius_min = 1.8897261259077822d-06
  upscale = 10000
/

&CELL
  cell_dynamics = 'bfgs'
!  cell_dofree = 'volume'
  press = 0.0001
  press_conv_thr = 0.0001
/

K_POINTS (automatic)
  2 2 2 1 1 1

CELL_PARAMETERS {alat}
  0.500000000000000  -0.476556518780305   0.000000000000000 
  0.500000000000000   0.476556518780305   0.000000000000000 
  0.000000000000000   0.000000000000000   0.952780505912103 
ATOMIC_SPECIES
   I  126.90400   I.upf
   H    1.00750   H.upf
   N   14.00650   N.upf
  H2    2.01410   H.upf
  Pb  207.20000  Pb.upf
   C   12.01060   C.upf
ATOMIC_POSITIONS {crystal}
Pb   0.000000000000000   0.000000000000000   0.000000000000000 
Pb   0.000000000000000   0.000000000000000   0.500000000000000 
Pb   0.500000000000000   0.500000000000000   0.000000000000000 
Pb   0.500000000000000   0.500000000000000   0.500000000000000 
 I   0.250280000000000   0.250280000000000   0.000000000000000 
 I   0.250280000000000   0.250280000000000   0.500000000000000 
 I   0.749720000000000   0.749720000000000   0.500000000000000 
 I   0.749720000000000   0.749720000000000   0.000000000000000 
 I   0.053600000000000   0.946400000000000   0.750000000000000 
 I   0.946400000000000   0.053600000000000   0.250000000000000 
 I   0.435620000000000   0.564380000000000   0.750000000000000 
 I   0.564380000000000   0.435620000000000   0.250000000000000 
 I   0.750780000000000   0.249220000000000   0.929360000000000 
 I   0.750780000000000   0.249220000000000   0.570640000000000 
 I   0.249220000000000   0.750780000000000   0.429360000000000 
 I   0.249220000000000   0.750780000000000   0.070640000000000 
 N   0.365260000000000   0.053020000000000   0.250000000000000 
 N   0.053020000000000   0.365260000000000   0.750000000000000 
 N   0.634740000000000   0.946980000000000   0.750000000000000 
 N   0.946980000000000   0.634740000000000   0.250000000000000 
 C   0.525850000000000   0.997790000000000   0.250000000000000 
 C   0.997790000000000   0.525850000000000   0.750000000000000 
 C   0.474150000000000   0.002210000000000   0.750000000000000 
 C   0.002210000000000   0.474150000000000   0.250000000000000 
H2   0.660750000000000   0.882390000000000   0.818200000000000 
H2   0.660750000000000   0.882390000000000   0.681800000000000 
H2   0.882390000000000   0.660750000000000   0.318200000000000 
H2   0.882390000000000   0.660750000000000   0.181800000000000 
H2   0.339250000000000   0.117610000000000   0.318200000000000 
H2   0.117610000000000   0.339250000000000   0.681800000000000 
H2   0.339250000000000   0.117610000000000   0.181800000000000 
H2   0.117610000000000   0.339250000000000   0.818200000000000 
 H   0.546580000000000   0.929920000000000   0.322810000000000 
 H   0.546580000000000   0.929920000000000   0.177190000000000 
 H   0.929920000000000   0.546580000000000   0.822810000000000 
 H   0.929920000000000   0.546580000000000   0.677190000000000 
 H   0.453420000000000   0.070080000000000   0.822810000000000 
 H   0.070080000000000   0.453420000000000   0.177190000000000 
 H   0.453420000000000   0.070080000000000   0.677190000000000 
 H   0.070080000000000   0.453420000000000   0.322810000000000 
 H   0.596050000000000   0.094590000000000   0.250000000000000 
 H   0.094590000000000   0.596050000000000   0.750000000000000 
 H   0.403950000000000   0.905410000000000   0.750000000000000 
 H   0.905410000000000   0.403950000000000   0.250000000000000 
H2   0.035880000000000   0.705000000000000   0.250000000000000 
H2   0.705000000000000   0.035880000000000   0.750000000000000 
H2   0.964120000000000   0.295000000000000   0.750000000000000 
H2   0.295000000000000   0.964120000000000   0.250000000000000 
