! SCF input from MAPI-ND-9 relaxed on 2024-07-29 at 66 eV

&CONTROL
  calculation = 'scf'
  prefix = 'MAPbI3'
  outdir = './tmp/'
  pseudo_dir = './pseudodojo-pbesol-paw-standard/'
  restart_mode = 'from_scratch'
  max_seconds = 21000
  etot_conv_thr = 3.5279349288639156d-12
  forc_conv_thr = 3.889380759660317d-07
  tprnfor = .true.
  tstress = .true.
  nstep = 999
/

&SYSTEM
  ecutwfc = 66.14877991619842
!  ecutrho = ! 4 * ecutwfc
  ibrav = 0
!  A =   12.93110
  celldm(1) = 24.43623749
!  nat = 
  nat = 48
  ntyp = 6
  input_dft = 'PBEsol'
  vdw_corr = 'DFT-D3'
  dftd3_version = 4
  dftd3_threebody = .true.
  occupations = 'fixed'
/

&ELECTRONS
  adaptive_thr = .true.
  conv_thr = 3.5279349288639156d-12
  diagonalization = 'ppcg'
!  mixing_beta = 0.7d0
  diago_thr_init = 1.0d-7
  electron_maxstep = 999
/

&IONS
  ion_dynamics = 'bfgs'
  trust_radius_min = 1.8897261259077822d-06
  upscale = 10000
/

&CELL
  cell_dynamics = 'bfgs'
!  cell_dofree = 'volume'
  press = 0.0001
  press_conv_thr = 0.0001
/

K_POINTS (automatic)
  2 2 2 1 1 1

!BEGIN_COORDINATES

ATOMIC_SPECIES
   I  126.90400   I.upf
   H    1.00750   H.upf
   N   14.00650   N.upf
  H2    2.01410   H.upf
  Pb  207.20000  Pb.upf
   C   12.01060   C.upf

CELL_PARAMETERS alat
   0.490462062  -0.466047333   0.000000000
   0.490462062   0.466047333   0.000000000
   0.000000000   0.000000000   0.935919893

ATOMIC_POSITIONS (crystal)
Pb            0.0000000000        0.0000000000       -0.0000000000
Pb           -0.0000000000       -0.0000000000        0.5000000000
Pb            0.5000000000        0.5000000000       -0.0000000000
Pb            0.5000000000        0.5000000000        0.5000000000
I             0.2504501583        0.2504501583       -0.0000000000
I             0.2504501583        0.2504501583        0.5000000000
I             0.7495498417        0.7495498417        0.5000000000
I             0.7495498417        0.7495498417        0.0000000000
I             0.0545341167        0.9454658833        0.7500000000
I             0.9454658833        0.0545341167        0.2500000000
I             0.4316207445        0.5683792555        0.7500000000
I             0.5683792555        0.4316207445        0.2500000000
I             0.7503142126        0.2496857874        0.9258551107
I             0.7503142126        0.2496857874        0.5741448893
I             0.2496857874        0.7503142126        0.4258551107
I             0.2496857874        0.7503142126        0.0741448893
N             0.3677255518        0.0526094646        0.2500000000
N             0.0526094646        0.3677255518        0.7500000000
N             0.6322744482        0.9473905354        0.7500000000
N             0.9473905354        0.6322744482        0.2500000000
C             0.5289907860        0.9943647985        0.2500000000
C             0.9943647985        0.5289907860        0.7500000000
C             0.4710092140        0.0056352015        0.7500000000
C             0.0056352015        0.4710092140        0.2500000000
H2            0.6585700836        0.8807333227        0.8197201612
H2            0.6585700836        0.8807333227        0.6802798388
H2            0.8807333227        0.6585700836        0.3197201612
H2            0.8807333227        0.6585700836        0.1802798388
H2            0.3414299164        0.1192666773        0.3197201612
H2            0.1192666773        0.3414299164        0.6802798388
H2            0.3414299164        0.1192666773        0.1802798388
H2            0.1192666773        0.3414299164        0.8197201612
H             0.5501242558        0.9243176149        0.3243519922
H             0.5501242558        0.9243176149        0.1756480078
H             0.9243176149        0.5501242558        0.8243519922
H             0.9243176149        0.5501242558        0.6756480078
H             0.4498757442        0.0756823851        0.8243519922
H             0.0756823851        0.4498757442        0.1756480078
H             0.4498757442        0.0756823851        0.6756480078
H             0.0756823851        0.4498757442        0.3243519922
H             0.6029210884        0.0920390449        0.2500000000
H             0.0920390449        0.6029210884        0.7500000000
H             0.3970789116        0.9079609551        0.7500000000
H             0.9079609551        0.3970789116        0.2500000000
H2            0.0374027550        0.7057687624        0.2500000000
H2            0.7057687624        0.0374027550        0.7500000000
H2            0.9625972450        0.2942312376        0.7500000000
H2            0.2942312376        0.9625972450        0.2500000000
